coords = array2d(1..27, 1..2, [723, 306, 437, 86, 398, 186, 856, 513, 537, 673,
    782, 44, 29, 559, 343, 866, 421, 101, 216, 640, 209, 330, 806, 18,
    771, 189, 524, 760, 853, 929, 333, 82, 835, 266, 802, 391, 235,
    259, 449, 50, 934, 651, 460, 880, 733, 771, 85, 31, 990, 942, 718,
    897, 320, 730]);

n = 27;

